p tw 50 128
e 0 14
e 0 28
e 0 29
e 0 38
e 0 44
e 1 8
e 1 27
e 1 31
e 1 42
e 2 7
e 2 8
e 2 10
e 2 11
e 2 40
e 3 6
e 3 9
e 3 28
e 3 30
e 3 31
e 4 11
e 4 14
e 4 22
e 4 33
e 4 42
e 4 44
e 5 10
e 5 40
e 5 41
e 5 44
e 6 7
e 6 25
e 6 39
e 6 43
e 7 12
e 7 14
e 7 32
e 7 33
e 7 34
e 7 35
e 7 40
e 7 46
e 8 9
e 8 14
e 8 19
e 8 49
e 10 11
e 10 12
e 10 41
e 11 13
e 11 18
e 11 25
e 11 28
e 11 30
e 11 31
e 11 36
e 11 42
e 12 20
e 12 29
e 12 32
e 12 37
e 12 39
e 12 41
e 12 49
e 13 27
e 13 33
e 13 41
e 15 36
e 15 37
e 16 24
e 16 28
e 16 29
e 16 34
e 16 39
e 17 18
e 17 33
e 17 42
e 17 47
e 18 22
e 18 34
e 18 39
e 19 26
e 19 33
e 19 42
e 19 45
e 19 48
e 20 30
e 20 40
e 21 28
e 21 37
e 21 43
e 22 31
e 22 32
e 22 42
e 22 45
e 22 49
e 23 33
e 23 35
e 23 40
e 23 47
e 24 32
e 24 35
e 25 43
e 25 44
e 26 32
e 26 34
e 26 36
e 26 46
e 27 29
e 28 43
e 28 48
e 29 37
e 29 42
e 30 46
e 32 40
e 32 48
e 33 35
e 34 45
e 34 46
e 35 42
e 35 46
e 36 37
e 36 49
e 37 40
e 39 45
e 40 41
e 41 42
e 42 46
e 43 49
